Route #1: 1 24 52 21 43 67 69
Route #2: 63 5 30 70 37 75 49
Route #3: 2 27 65 47 56 38 58 72 17
Route #4: 29 73 76 32 7 57
Route #5: 51 34 12 15 22 71 8
Route #6: 10 68 18 25 42 16 66 60 6
Route #7: 41 14 36 59 35 55 33 4 19 28
Route #8: 9 74 48 13 39 61 50
Route #9: 62 54 20 3 31 46 45
Route #10: 53 40 64 11 26 44 23 77
Cost 1267